Quiz_prob.sol
# Solution for model basic_model
# Objective value = 0.8388
Perosnal 0
Car 0
Home 7
Farm 0
Commercial 3
